NAME : tsp40_28.209.tour
COMMENT : Length = 209
COMMENT : Found by LKH [Keld Helsgaun]
TYPE : TOUR
DIMENSION : 40
TOUR_SECTION
1
7
19
36
6
21
18
10
9
8
38
30
33
27
15
13
17
12
29
28
11
39
4
23
31
22
37
26
5
3
2
25
35
34
40
32
14
16
20
24
-1
EOF
